Route #1: 14 49 6 37
Route #2: 7 2 45 43 29 36 72 57
Route #3: 89 98 99 62 81
Route #4: 90 9 84 66
Route #5: 51 71 83
Route #6: 48 87 82 88
Route #7: 18 4
Route #8: 76 55 74 13
Route #9: 15 41 20 35
Route #10: 32 31 46 24
Route #11: 92 16 69
Route #12: 40 96 94 56
Route #13: 11 85 30 79
Route #14: 23 21 8
Route #15: 10 39 63
Route #16: 25 65 78 42 28
Route #17: 68 54 86
Route #18: 50 19 61
Route #19: 1 70 22
Route #20: 34 64 3 59 77
Route #21: 93 75
Route #22: 95 73 53 33
Route #23: 91 52 100
Route #24: 80 17
Route #25: 97 27 38 47 26
Route #26: 60 67 44
Route #27: 5 12 58
Cost: 28300
